50 103
10 11 1
11 22 1
11 20 1
8 10 1
4 17 2
11 21 1
8 29 2
7 24 4
9 14 2
5 12 2
3 6 2
9 22 1
6 23 2
4 15 2
8 18 4
9 28 1
7 28 4
7 22 4
10 15 3
7 7 1
7 16 3
7 11 1
9 27 1
7 10 2
11 18 4
11 11 4
8 35 2
7 20 2
8 20 6
8 15 2
7 33 2
9 17 3
8 17 3
9 15 1
9 29 1
4 29 1
6 27 6
4 18 1
8 13 1
6 13 2
11 23 1
16 33 1
10 29 1
9 11 2
16 25 1
9 21 1
12 25 1
7 13 1
5 7 1
8 22 4
50 100 
50 100 
50 100 
50 100 
50 100 
50 100 
50 100 
50 100 
50 100 
50 100 
50 100 
50 100 
50 100 
50 100 
50 100 
50 100 
50 100 
50 100 
50 100 
50 100 
50 100 
50 100 
50 100 
50 100 
50 100 
50 100 
50 100 
50 100 
50 100 
50 100 
50 100 
50 100 
50 100 
50 100 
50 100 
50 100 
50 100 
50 100 
50 100 
50 100 
50 100 
50 100 
50 100 
50 100 
50 100 
50 100 
50 100 
50 100 
50 100 
50 100 
50 100 
50 100 
50 100 
50 100 
50 100 
50 100 
50 100 
50 100 
50 100 
50 100 
50 100 
50 100 
50 100 
50 100 
50 100 
50 100 
50 100 
50 100 
50 100 
50 100 
50 100 
50 100 
50 100 
50 100 
50 100 
50 100 
50 100 
50 100 
50 100 
50 100 
50 100 
50 100 
50 100 
50 100 
50 100 
50 100 
50 100 
50 100 
50 100 
50 100 
50 100 
50 100 
50 100 
50 100 
50 100 
50 100 
50 100 
50 100 
50 100 
50 100 
50 100 
50 100 
50 100 
